
Gurobi 11.0.3 (linux64) logging started Thu Apr 16 17:41:03 2026

Set parameter LogFile to value "tree/results/fish/fish_depth-3_run-1/Full MIP/LogFile_FullModel.txt"
Gurobi Optimizer version 11.0.3 build v11.0.3rc0 (linux64 - "CentOS Linux 7 (Core)")

CPU model: Intel(R) Xeon(R) Platinum 8260 CPU @ 2.40GHz, instruction set [SSE2|AVX|AVX2|AVX512]
Thread count: 96 physical cores, 192 logical processors, using up to 32 threads

Optimize a model with 244964 rows, 171506 columns and 1202820 nonzeros
Model fingerprint: 0x0cb01fde
Model has 24480 general constraints
Variable types: 97994 continuous, 73512 integer (73512 binary)
Coefficient statistics:
  Matrix range     [2e-04, 1e+04]
  Objective range  [3e-04, 1e+04]
  Bounds range     [1e+00, 3e+03]
  RHS range        [1e-04, 3e+03]

User MIP start produced solution with objective -109999 (0.61s)
Loaded user MIP start with objective -109999

Presolve added 24472 rows and 73440 columns
Presolve time: 3.06s
Presolved: 269436 rows, 244946 columns, 1350324 nonzeros
Presolved model has 73440 SOS constraint(s)
Variable types: 97994 continuous, 146952 integer (146952 binary)

Deterministic concurrent LP optimizer: primal simplex, dual simplex, and barrier
Showing barrier log only...

Root relaxation presolved: 269436 rows, 244946 columns, 1350324 nonzeros

Root barrier log...

Ordering time: 0.12s

Barrier statistics:
 Dense cols : 28
 AA' NZ     : 1.282e+06
 Factor NZ  : 3.688e+06 (roughly 240 MB of memory)
 Factor Ops : 5.550e+07 (less than 1 second per iteration)
 Threads    : 30

                  Objective                Residual
Iter       Primal          Dual         Primal    Dual     Compl     Time
   0  -1.24323760e+05  2.35529299e+09  9.00e+03 5.68e-14  7.98e+05     8s
   1  -8.42944608e+04  3.63995102e+09  3.60e+03 2.57e+01  2.68e+05     8s
   2  -5.33556321e+04  3.56785568e+09  3.89e+02 5.95e+00  3.41e+04     9s
   3  -1.96086980e+04  2.07024769e+09  3.85e+01 6.37e-01  5.66e+03     9s
   4  -1.99525738e+03  3.35248172e+08  3.82e+00 6.37e-02  6.97e+02    10s
   5  -1.99335688e+02  3.93476301e+07  3.82e-01 6.36e-03  7.59e+01    10s
   6  -1.97434834e+01  4.01963448e+06  3.87e-02 6.36e-04  7.58e+00    10s
   7  -1.78390671e+00  4.05571657e+05  4.36e-03 6.42e-05  7.63e-01    10s
   8   1.59534099e-02  4.47469021e+04  7.60e-04 7.08e-06  8.41e-02    11s
   9   2.81140755e-01  8.62585507e+03  7.53e-05 1.36e-06  1.62e-02    11s
  10   8.52924530e-01  2.65013718e+03  7.46e-06 3.54e-07  4.99e-03    12s
  11   9.85303608e-01  4.47707500e+02  2.75e-06 5.90e-08  8.42e-04    12s
  12   9.35207026e-01  4.87690479e+01  2.73e-07 6.22e-09  9.02e-05    12s
  13   9.93520701e-01  5.88321014e+00  2.70e-08 6.22e-10  9.22e-06    13s
  14   9.99352070e-01  1.48864041e+00  2.72e-09 6.23e-11  9.22e-07    13s
  15   9.99935207e-01  1.04886451e+00  2.73e-10 6.23e-12  9.22e-08    14s
  16   9.99993521e-01  1.00488645e+00  2.73e-11 6.23e-13  9.22e-09    14s
  17   9.99999352e-01  1.00048865e+00  2.81e-12 6.23e-14  9.22e-10    15s
  18   9.99999935e-01  1.00004887e+00  5.12e-13 6.24e-15  9.22e-11    16s
  19   9.99999994e-01  1.00000489e+00  4.30e-13 1.42e-14  9.22e-12    17s
  20   9.99999999e-01  1.00000049e+00  4.26e-13 6.24e-17  9.22e-13    17s
  21   1.00000000e+00  1.00000005e+00  4.41e-13 6.24e-18  9.22e-14    18s
  22   1.00000000e+00  1.00000000e+00  4.41e-13 6.94e-18  9.22e-15    18s

Barrier solved model in 22 iterations and 18.18 seconds (10.31 work units)
Optimal objective 1.00000000e+00


Root crossover log...

   11881 DPushes remaining with DInf 0.0000000e+00                19s
       0 DPushes remaining with DInf 0.0000000e+00                19s

   96244 PPushes remaining with PInf 0.0000000e+00                19s
     474 PPushes remaining with PInf 7.8952492e-08                20s
       0 PPushes remaining with PInf 0.0000000e+00                21s

  Push phase complete: Pinf 0.0000000e+00, Dinf 0.0000000e+00     21s


Root simplex log...

Iteration    Objective       Primal Inf.    Dual Inf.      Time
   96248    1.0000000e+00   1.682982e-05   0.000000e+00     21s
   96253    1.0000000e+00   0.000000e+00   0.000000e+00     21s
   96253    1.0000000e+00   0.000000e+00   0.000000e+00     22s
Concurrent spin time: 0.01s

Solved with barrier

Root relaxation: objective 1.000000e+00, 96253 iterations, 15.87 seconds (8.53 work units)
Total elapsed time = 65.18s (DegenMoves)

    Nodes    |    Current Node    |     Objective Bounds      |     Work
 Expl Unexpl |  Obj  Depth IntInf | Incumbent    BestBd   Gap | It/Node Time

     0     0    1.00000    0 25061 -109999.32    1.00000   100%     -   66s
     0     2    1.00000    0 25061 -109999.32    1.00000   100%     -  799s
     1     4    1.00000    1 25019 -109999.32    1.00000   100% 41202 1625s
     3     8    1.00000    2 24977 -109999.32    1.00000   100% 42053 2244s
     7    16    1.00000    3 24857 -109999.32    1.00000   100% 39150 3190s
    15    21    1.00000    4 24738 -109999.32    1.00000   100% 60772 3600s

Explored 20 nodes (1075745 simplex iterations) in 3600.47 seconds (3502.96 work units)
Thread count was 32 (of 192 available processors)

Solution count 1: -109999 

Time limit reached
Best objective -1.099993205882e+05, best bound 1.000000000000e+00, gap 100.0009%

User-callback calls 2401726, time in user-callback 12.19 sec
